p cnf 16 57
5 -9 -10 0
2 -3 12 0
6 13 14 0
5 13 -14 0
2 -7 16 0
-1 2 13 0
-1 7 11 0
1 11 16 0
-7 8 -11 0
-3 6 11 0
-7 -14 16 0
-2 -10 -13 0
4 5 -10 0
-5 -6 -15 0
10 -11 14 0
-1 -8 10 0
-2 -7 10 0
9 -10 11 0
4 -9 -16 0
-1 5 8 0
-5 -12 -16 0
2 4 11 0
-4 -13 16 0
-8 13 -15 0
4 -13 14 0
-6 14 -15 0
5 -15 16 0
2 3 -6 0
2 -12 13 0
6 -8 -16 0
5 -8 12 0
-7 -13 -14 0
-1 9 15 0
3 4 8 0
-9 -10 12 0
-3 13 -15 0
5 8 11 0
-6 7 13 0
-6 -8 -12 0
2 10 -16 0
9 -12 -15 0
3 12 13 0
5 9 15 0
11 14 16 0
-6 -11 15 0
8 12 -16 0
-5 -8 15 0
-9 -13 -16 0
1 3 -8 0
-5 8 -12 0
-4 -7 -13 0
-2 -6 -14 0
8 15 -16 0
1 5 -11 0
4 -9 10 0
5 9 -12 0
-11 12 -15 0
